Normalized Data/p01_1090_tsplib0_normalized_splitx10_0.vrp
NAME:p01_1090_tsplib0_NORMALIZED_splitx10_
BEST_KNOWN: 0
COMMENT: 0
DIMENSION: 258
CAPACITY: 1000
EDGE_WEIGHT_FORMAT: FUNCTION
EDGE_WEIGHT_TYPE: EXACT_2D
NODE_COORD_SECTION
1 0.00000 0.00000
2 7 12
3 7 12
4 7 12
5 7 12
6 7 12
7 7 12
8 7 12
9 7 12
10 19 9
11 19 9
12 19 9
13 22 24
14 22 24
15 22 24
16 22 24
17 22 24
18 -10 -14
19 -10 -14
20 -10 -14
21 -10 -14
22 -10 -14
23 -10 -14
24 -10 -14
25 10 -10
26 10 -10
27 10 -10
28 10 -10
29 10 -10
30 10 -10
31 -9 7
32 -9 7
33 -9 7
34 -9 7
35 -9 7
36 -9 7
37 -9 7
38 -9 7
39 -13 23
40 -13 23
41 -13 23
42 -13 23
43 -13 23
44 -13 23
45 -13 23
46 1 22
47 1 22
48 1 22
49 1 22
50 1 22
51 22 -7
52 22 -7
53 22 -7
54 21 -19
55 21 -19
56 21 -19
57 12 1
58 12 1
59 12 1
60 12 1
61 12 1
62 12 1
63 12 1
64 12 1
65 1 -8
66 1 -8
67 1 -8
68 -25 -15
69 -25 -15
70 -25 -15
71 -25 -15
72 -18 2
73 -18 2
74 -18 2
75 -18 2
76 6 -24
77 6 -24
78 6 -24
79 6 -24
80 22 1
81 22 1
82 22 1
83 22 1
84 22 1
85 -3 -17
86 -3 -17
87 -3 -17
88 -13 -7
89 -13 -7
90 -13 -7
91 -17 -27
92 -17 -27
93 -17 -27
94 -17 -27
95 -17 -27
96 -17 -27
97 -17 -27
98 -17 -27
99 27 18
100 27 18
101 27 18
102 27 18
103 27 18
104 27 18
105 32 2
106 32 2
107 32 2
108 32 2
109 32 2
110 12 17
111 12 17
112 12 17
113 -14 17
114 -14 17
115 -14 17
116 -14 17
117 -22 12
118 -22 12
119 -22 12
120 -22 12
121 -22 12
122 -23 -2
123 -23 -2
124 -23 -2
125 -23 -2
126 -23 -2
127 -23 -2
128 -23 -2
129 -3 28
130 -3 28
131 -3 28
132 -3 28
133 -3 28
134 -3 28
135 -3 28
136 0 8
137 0 8
138 0 8
139 13 27
140 13 27
141 13 27
142 13 27
143 13 27
144 28 8
145 28 8
146 28 -13
147 28 -13
148 28 -13
149 28 -13
150 28 -13
151 7 29
152 7 29
153 7 29
154 7 29
155 7 29
156 7 29
157 7 29
158 8 6
159 8 6
160 8 6
161 8 6
162 8 6
163 8 6
164 8 6
165 16 -30
166 16 -30
167 16 -30
168 16 -30
169 16 -30
170 16 -30
171 31 -7
172 31 -7
173 31 -7
174 32 23
175 32 23
176 32 23
177 32 23
178 32 23
179 32 23
180 32 23
181 33 29
182 33 29
183 33 29
184 33 29
185 33 29
186 33 29
187 2 -18
188 2 -18
189 2 -18
190 2 -18
191 2 -18
192 15 -5
193 15 -5
194 15 -5
195 15 -5
196 15 -5
197 15 -5
198 29 -25
199 29 -25
200 29 -25
201 29 -25
202 29 -25
203 29 -25
204 -25 -34
205 -25 -34
206 -25 -34
207 -25 -34
208 -25 -34
209 -25 -34
210 -20 -23
211 -20 -23
212 -9 -30
213 -9 -30
214 -25 24
215 -25 24
216 -25 24
217 0 -25
218 0 -25
219 0 -25
220 0 -25
221 0 -25
222 0 -25
223 9 -30
224 9 -30
225 9 -30
226 9 -30
227 2 -1
228 2 -1
229 2 -1
230 2 -1
231 -5 -8
232 -5 -8
233 -5 -8
234 -5 -8
235 -5 -8
236 -5 -8
237 -5 -8
238 -5 15
239 -5 15
240 -5 15
241 -5 15
242 -5 15
243 -5 15
244 18 -12
245 18 -12
246 18 -12
247 18 -12
248 18 -12
249 18 -12
250 18 -12
251 26 -3
252 26 -3
253 26 -3
254 26 -3
255 26 -3
256 26 -3
257 26 -3
258 26 -3
DEMAND_SECTION
1 0
2 200
3 200
4 200
5 100
6 50
7 10
8 10
9 10
10 200
11 200
12 10
13 200
14 50
15 10
16 10
17 10
18 200
19 200
20 100
21 10
22 10
23 10
24 10
25 200
26 200
27 200
28 200
29 10
30 10
31 200
32 200
33 200
34 100
35 50
36 10
37 10
38 10
39 200
40 200
41 50
42 10
43 10
44 10
45 10
46 100
47 50
48 10
49 10
50 10
51 200
52 50
53 10
54 100
55 10
56 10
57 200
58 200
59 200
60 100
61 10
62 10
63 10
64 10
65 200
66 200
67 10
68 200
69 200
70 50
71 10
72 200
73 200
74 100
75 10
76 200
77 200
78 200
79 50
80 200
81 100
82 10
83 10
84 10
85 100
86 50
87 10
88 200
89 200
90 100
91 200
92 200
93 200
94 100
95 50
96 10
97 10
98 10
99 200
100 200
101 100
102 10
103 10
104 10
105 100
106 50
107 10
108 10
109 10
110 200
111 200
112 200
113 200
114 200
115 200
116 10
117 200
118 200
119 100
120 50
121 10
122 200
123 200
124 200
125 100
126 10
127 10
128 10
129 200
130 200
131 200
132 50
133 10
134 10
135 10
136 100
137 10
138 10
139 200
140 200
141 200
142 100
143 10
144 200
145 10
146 100
147 50
148 10
149 10
150 10
151 200
152 200
153 200
154 100
155 50
156 10
157 10
158 200
159 200
160 200
161 100
162 10
163 10
164 10
165 200
166 200
167 200
168 100
169 50
170 10
171 200
172 50
173 10
174 200
175 200
176 200
177 100
178 50
179 10
180 10
181 200
182 200
183 50
184 10
185 10
186 10
187 200
188 200
189 200
190 100
191 10
192 200
193 200
194 50
195 10
196 10
197 10
198 200
199 200
200 50
201 10
202 10
203 10
204 200
205 200
206 200
207 100
208 50
209 10
210 200
211 50
212 100
213 50
214 200
215 200
216 200
217 200
218 200
219 200
220 10
221 10
222 10
223 200
224 200
225 200
226 200
227 200
228 100
229 10
230 10
231 200
232 200
233 50
234 10
235 10
236 10
237 10
238 200
239 200
240 10
241 10
242 10
243 10
244 200
245 200
246 200
247 100
248 50
249 10
250 10
251 200
252 200
253 100
254 50
255 10
256 10
257 10
258 10
DEPOT_SECTION
1
-1
EOF