Normalized Data/p01_1090_tsplib0_normalized_splitx10_0.sol
257 -1 111 109 110 10 -6 2 4 5 7 3 8 158 162 161 159 -9 11 99 102 103 100 101 98 179 175 177 -14 15 16 12 13 141 142 138 140 139 -17 18 22 19 21 230 233 234 236 231 232 -20 23 90 92 93 91 210 209 -25 24 26 28 27 29 228 229 227 -33 32 37 36 31 30 35 34 -49 48 45 47 46 154 152 156 153 151 150 155 -52 50 147 148 149 146 145 199 200 201 198 197 202 53 54 55 -59 63 79 80 82 83 81 255 254 252 253 107 106 108 105 104 143 144 -61 62 56 57 58 60 157 163 160 -65 64 66 -68 67 70 69 89 87 88 -71 72 117 116 119 118 120 -73 74 122 127 123 121 125 126 124 -75 224 222 225 223 -76 78 219 220 221 216 217 218 190 189 -77 166 167 169 165 164 168 -86 84 85 188 187 186 226 -113 115 39 40 42 43 41 44 38 240 239 238 242 241 -114 112 214 213 215 -136 137 135 130 132 131 128 129 134 133 237 -173 176 178 174 181 182 180 185 183 184 -193 191 194 196 51 171 170 172 257 251 250 256 -195 192 244 249 243 248 245 247 246 -212 211 203 208 204 206 205 207 96 97 94 95 235 0 





OBJ=
1509.184
BEST_KNOWN=
0.000